NAME: test1842
TYPE: TSP
DIMENSION: 11
EDGE_WEIGHT_TYPE: EUC_2D
NODE_COORD_SECTION
1 81.13767935800799 61.075977336501296
2 84.41975564819671 14.563567717885107
3 9.759332629060635 91.90738560770288
4 15.527272317466556 66.7996000971486
5 9.745663093707346 11.115507617871923
6 55.10387947035609 21.760530481740904
7 70.75069891787132 18.171851484809544
8 47.67393243403979 25.522950441779113
9 35.90272352803826 95.56955891488072
10 62.047363906625044 7.324385487532814
11 42.643712021958976 20.528195236700398
EOF
